32 6 14 82 75 70 63 55 92 12 37 79 85 60 86 13 39 58 72 5 69 17 29 50 95 93 91 83 43 81 51 84 3 97 90 67 45 49 53 64 80 33 11 98 41 10 31 48 59 35 68 76 9 2 42 38 34 47 94 30 19 46 96 7 40 99 89 20 15 27 16 24 74 52 18 23 1 22 26 62 87 4 73 77 28 21 25 71 8 78 44 65 36 88 61 54 56 66 0 57